100
4 24
12 26
1 21
14 5
11 48
0 24
22 86
15 8
14 51
10 8
25 44
12 16
22 60
14 38
2 95
9 81
9 18
20 81
9 11
19 86
13 0
16 71
12 25
8 34
22 86
1 39
27 78
0 75
13 42
27 86
20 18
6 8
19 79
10 28
7 28
10 1
25 30
17 19
13 57
25 87
28 47
7 78
23 86
0 68
6 19
29 69
17 26
18 25
16 18
19 0
4 73
5 79
18 79
28 14
1 3
21 83
4 80
18 28
28 67
18 98
29 55
23 79
15 96
6 43
24 63
8 65
25 98
19 43
27 95
21 17
2 58
20 2
2 66
26 8
18 31
28 76
16 77
25 23
17 13
16 92
19 63
1 16
29 6
12 42
29 68
16 5
29 63
22 69
7 41
24 68
16 88
27 14
20 52
17 43
17 9
2 45
11 96
13 85
7 20
20 57
